CPXPARAM_MIP_Cuts_MIRCut#P20#0#CPXPARAM_MIP_Strategy_NodeSelect#P39#1#3.102550#0.719765
CPXPARAM_MIP_Cuts_MIRCut#P20#0#CPXPARAM_MIP_Strategy_NodeSelect#P39#2#3.983007#0.924024
CPXPARAM_MIP_Cuts_MIRCut#P20#1#CPXPARAM_MIP_Strategy_NodeSelect#P39#2#2.334058#0.541482
CPXPARAM_MIP_Cuts_MIRCut#P20#2#CPXPARAM_MIP_Strategy_NodeSelect#P39#2#4.310502#1.000000
CPXPARAM_MIP_Cuts_MIRCut#P20#2#CPXPARAM_MIP_Strategy_NodeSelect#P39#3#2.333849#0.541433
